proyfinal/src/viki/013/experimentInOfficeAgust.take6.output/6240ed13-cc9c-411e-a34d-2e000ef825cd.als.out
Reading from standard input... Use '--help' for help.
============================[ Problem Statistics ]=============================
|                                                                             |
|  Number of variables:         87638                                         |
|  Number of clauses:          161767                                         |
|  Parse time:                   0.03 s                                       |
|                                                                             |
============================[ Search Statistics ]==============================
| Conflicts |          ORIGINAL         |          LEARNT          | Progress |
|           |    Vars  Clauses Literals |    Limit  Clauses Lit/Cl |          |
===============================================================================
|       100 |   63957   110779   276777 |    40618      100     18 | 27.021 % |
|       250 |   63957   110779   276777 |    44680      250     31 | 27.022 % |
|       475 |   63956   110735   276687 |    49148      474     32 | 27.023 % |
|       812 |   63956   110735   276687 |    54063      811    109 | 27.023 % |
|      1318 |   63956   110735   276687 |    59470     1317     92 | 27.023 % |
|      2077 |   63956   110735   276687 |    65417     2076     98 | 27.023 % |
|      3216 |   63956   110735   276687 |    71958     3215     97 | 27.023 % |
|      4924 |   63934   110643   276476 |    79154     3805     89 | 27.048 % |
|      7486 |   63934   110643   276476 |    87070     6367    114 | 27.048 % |
|     11330 |   63888   110527   276211 |    95777    10209    109 | 27.100 % |
===============================================================================
restarts              : 63
conflicts             : 16712          (6541 /sec)
decisions             : 60686          (0.00 % random) (23752 /sec)
propagations          : 24606268       (9630750 /sec)
conflict literals     : 1642532        (46.78 % deleted)
Memory used           : 40.93 MB
CPU time              : 2.55497 s

INDETERMINATE
